%YEARWORK HANGAR PORTAL FRAEME STRUCTURE

%node list:
% node nr.|constrain x,  y,  theta|cord. x,   y
*NODES
1		             0 0 0	        0    0
2			         0 0 0          0    3
3		             0 0 0         -2   1.5
4                    0 0 0         -4    0       
5                    0 0 0         -4   2.5
6                    0 0 0         -6   1.25
7                    0 0 0         -8    0
8                    0 0 0         -8    2
9                    0 0 0         -12   0
10                   0 0 0         -12   1.5
11                   0 0 0         -16   0
12                   0 0 0         -16   1
13                   0 0 0  	     2   1.5
14                   0 0 0  	     4    0  
15                   0 0 0  	     4   2.5
16                   0 0 0  	     6   1.25
17                   0 0 0  	     8    0
18                   0 0 0  	     8    2
19                   0 0 0  	     12   0
20                   0 0 0  	     12   1.5
21                   0 0 0  	     16   0
22                   0 0 0  	     16   1
23                   0 0 0         -16   -4
24                   0 0 0          16   -4
25                   0 0 0         -16   -8
26                   0 0 0          16   -8
27                   0 0 0         -18   -10
28                   0 0 0          18    -10
29                   1 1 1         -18   -12
30                   1 1 1          18    -12
31                   1 1 1         -16   -12
32                   1 1 1          16   -12
*ENDNODES

% beams list :
% beam nr. |i-th node|j-th node|   mass [kg/m] |  EA [N] | EJ [Nm^2]	
*BEAMS
1	       1		2		30.7	8.05872e8	8.01752e6
2		 1		4		30.7	8.05872e8   8.01752e6
3		 2		3		30.7	8.05872e8   8.01752e6
4		 3		4		30.7	8.05872e8   8.01752e6
5		 4		5		30.7	8.05872e8   8.01752e6
6		 5		2		30.7	8.05872e8   8.01752e6
7		 7    	4		30.7	8.05872e8   8.01752e6	
8		 5		6		30.7	8.05872e8   8.01752e6
9		 6		7		30.7	8.05872e8   8.01752e6
10		 7		9		30.7	8.05872e8   8.01752e6
11		 7		8		30.7	8.05872e8   8.01752e6
12		 8		9		30.7	8.05872e8   8.01752e6
13		 8		10		30.7	8.05872e8   8.01752e6
14		 10		9		30.7	8.05872e8   8.01752e6
15		 11		9		30.7	8.05872e8   8.01752e6
16		 11		10		30.7	8.05872e8   8.01752e6
17		 10		12		30.7	8.05872e8   8.01752e6
18		 11		12		30.7	8.05872e8   8.01752e6
19		 1		14		30.7	8.05872e8   8.01752e6
20		 13		14		30.7	8.05872e8	8.01752e6
21		 13		2		30.7	8.05872e8   8.01752e6
22		 2	      15		30.7	8.05872e8   8.01752e6
23	       15		14		30.7	8.05872e8   8.01752e6
24		 14		17		30.7	8.05872e8   8.01752e6
25		 16		17		30.7	8.05872e8   8.01752e6
26		 15		16		30.7	8.05872e8   8.01752e6	
27		 15		18		30.7	8.05872e8   8.01752e6
28		 17		19		30.7	8.05872e8   8.01752e6
29		 17		18		30.7	8.05872e8   8.01752e6
30		 18		19		30.7	8.05872e8   8.01752e6
31		 18     20		30.7	8.05872e8   8.01752e6
32		 19		21		30.7	8.05872e8   8.01752e6
33		 19		20		30.7	8.05872e8   8.01752e6
34		 20		21		30.7	8.05872e8   8.01752e6
35		 20		22		30.7	8.05872e8   8.01752e6
36		 21		22		30.7	8.05872e8   8.01752e6
37	     5		8	      30.7	8.05872e8   8.01752e6
38		 11		23		90.7	2.3793e9   9.9292e7
39	     23		25		90.7	2.3793e9   9.9292e7
40	     25		31	    90.7	    2.3793e9       9.9292e7
41		 21		24		90.7	2.3793e9   9.9292e7
42       24		26		90.7	2.3793e9   9.9292e7
43	     26		32		90.7	2.3793e9   9.9292e7
44		 27		29	    30.7	8.05872e8   8.01752e6
45		 25		27		30.7	8.05872e8   8.01752e6
46		 28		30	   30.7	   8.05872e8   8.01752e6
47		 26		28		30.7	8.05872e8   8.01752e6
*ENDBEAMS

%damping matrix parameter (hypt of proportional dumping)
*DAMPING
0.2	8.0e-5
